p cnf 70 266
-3 1 0
-3 -2 0
-1 2 3 0
-3 -4 -5 0
3 4 -5 0
-3 4 5 0
3 -4 5 0
7 -6 0
7 1 0
6 -1 -7 0
8 7 -9 0
-8 -7 -9 0
8 -7 9 0
-8 7 9 0
7 -9 -10 0
-7 9 -10 0
7 9 10 0
-7 -9 10 0
5 10 -11 0
-5 -10 -11 0
5 -10 11 0
-5 10 11 0
13 -12 0
13 3 0
12 -3 -13 0
-14 7 0
-14 -4 0
-7 4 14 0
13 14 -15 0
-13 -14 -15 0
13 -14 15 0
-13 14 15 0
16 6 0
16 -4 0
-6 4 -16 0
17 16 0
17 9 0
-16 -9 -17 0
18 -15 0
18 17 0
15 -17 -18 0
20 -19 0
20 10 0
19 -10 -20 0
22 -2 0
22 -7 0
2 7 -22 0
-23 -22 0
-23 -10 0
22 10 23 0
-24 -23 0
-24 -6 0
23 6 24 0
-25 -21 0
-25 24 0
21 -24 25 0
26 24 0
26 4 0
-24 -4 -26 0
-25 26 -27 0
25 -26 -27 0
-25 -26 27 0
25 26 27 0
-20 27 -28 0
20 -27 -28 0
-20 -27 28 0
20 27 28 0
-28 -9 -29 0
28 9 -29 0
-28 9 29 0
28 -9 29 0
30 18 0
30 -29 0
-18 29 -30 0
6 1 -32 0
-6 -1 -32 0
6 -1 32 0
-6 1 32 0
33 -32 0
33 6 0
32 -6 -33 0
-34 -33 0
-34 -6 0
33 6 34 0
-19 21 -35 0
19 -21 -35 0
-19 -21 35 0
19 21 35 0
-34 -35 -36 0
34 35 -36 0
-34 35 36 0
34 -35 36 0
-12 36 -37 0
12 -36 -37 0
-12 -36 37 0
12 36 37 0
-31 -37 -38 0
31 37 -38 0
-31 37 38 0
31 -37 38 0
-34 4 -39 0
34 -4 -39 0
-34 -4 39 0
34 4 39 0
40 38 0
40 39 0
-38 -39 -40 0
42 2 0
42 41 0
-2 -41 -42 0
-43 -40 0
-43 42 0
40 -42 43 0
-44 12 0
-44 5 0
-12 -5 44 0
-44 -19 -45 0
44 19 -45 0
-44 19 45 0
44 -19 45 0
46 1 0
46 -9 0
-1 9 -46 0
-47 5 0
-47 -12 0
-5 12 47 0
48 -47 0
48 8 0
47 -8 -48 0
-49 -46 0
-49 -48 0
46 48 49 0
45 49 -50 0
-45 -49 -50 0
45 -49 50 0
-45 49 50 0
-51 -4 0
-51 41 0
4 -41 51 0
-33 51 -52 0
33 -51 -52 0
-33 -51 52 0
33 51 52 0
-21 52 -53 0
21 -52 -53 0
-21 -52 53 0
21 52 53 0
-50 -53 -54 0
50 53 -54 0
-50 53 54 0
50 -53 54 0
8 -33 -55 0
-8 33 -55 0
8 33 55 0
-8 -33 55 0
-56 -37 0
-56 8 0
37 -8 56 0
57 -55 0
57 -56 0
55 56 -57 0
58 54 0
58 -57 0
-54 57 -58 0
59 43 0
59 58 0
-43 -58 -59 0
60 -20 0
60 16 0
20 -16 -60 0
-47 -8 -61 0
47 8 -61 0
-47 8 61 0
47 -8 61 0
62 60 0
62 61 0
-60 -61 -62 0
9 16 -63 0
-9 -16 -63 0
9 -16 63 0
-9 16 63 0
-64 -63 0
-64 21 0
63 -21 64 0
65 -7 0
65 23 0
7 -23 -65 0
66 64 0
66 -65 0
-64 65 -66 0
-62 -66 -67 0
62 66 -67 0
-62 66 67 0
62 -66 67 0
59 -67 -68 0
-59 67 -68 0
59 67 68 0
-59 -67 68 0
69 30 0
69 -68 0
-30 68 -69 0
70 11 0
70 -69 0
-11 69 -70 0
52 38 0
-43 -58 -10 0
-29 46 63 36 0
38 20 -25 -40 47 0
-34 -64 0
-6 64 7 -59 1 0
-63 -30 21 -38 -18 0
-44 40 0
-39 7 60 -25 0
-64 3 10 0
1 64 2 -10 -36 0
-42 13 49 53 16 0
38 10 56 0
-2 8 23 -17 0
-38 -7 61 -55 0
39 43 -9 48 60 46 0
11 -10 -47 17 0
-35 64 0
26 -38 4 -54 -49 0
9 -44 33 0
18 20 -29 68 0
22 54 47 0
36 55 0
-11 7 -63 -4 0
-54 -62 -8 63 -64 0
-64 61 0
-17 63 0
31 66 -21 0
-52 38 -68 0
-1 -20 -18 -29 35 0
-60 -41 68 0
30 3 0
-5 66 9 70 -64 -47 0
-8 -25 46 -7 -65 -3 0
64 60 -1 -48 -10 0
50 25 32 -6 0
-38 -1 7 -37 0
-38 -3 -70 18 33 -63 0
67 12 -57 21 -68 0
62 59 -43 35 0
50 49 41 -22 64 -35 0
-31 26 46 0
46 -37 -10 0
-43 -6 -28 25 0
22 -1 0
12 17 -34 -3 21 29 0
36 32 -20 0
-65 -23 -26 43 0
-60 3 -55 23 32 0
13 67 35 0
16 3 45 14 0
-17 40 60 -54 0
58 -48 -69 -35 42 0
-66 67 12 -21 13 0
24 -22 -4 -6 -70 0
68 5 -56 -34 63 0
-10 20 0
-14 -66 -51 0
7 -30 -43 58 -14 -68 0
57 -46 0
51 -11 -10 23 68 0
70 0
